* #variable= 558 #constraint= 525 
-1 x19 +1 x1 >= 0 ;
-1 x19 +1 x10 >= 0 ;
+1 x19 -1 x1 -1 x10 >= -1 ;
+1 x10 = 0 ;
-1 x20 +1 x2 >= 0 ;
-1 x20 +1 x11 >= 0 ;
+1 x20 -1 x2 -1 x11 >= -1 ;
+1 x11 = 1 ;
-1 x21 +1 x3 >= 0 ;
-1 x21 +1 x12 >= 0 ;
+1 x21 -1 x3 -1 x12 >= -1 ;
+1 x12 = 0 ;
-1 x22 +1 x4 >= 0 ;
-1 x22 +1 x13 >= 0 ;
+1 x22 -1 x4 -1 x13 >= -1 ;
+1 x13 = 1 ;
-1 x23 +1 x5 >= 0 ;
-1 x23 +1 x14 >= 0 ;
+1 x23 -1 x5 -1 x14 >= -1 ;
+1 x14 = 0 ;
-1 x24 +1 x6 >= 0 ;
-1 x24 +1 x15 >= 0 ;
+1 x24 -1 x6 -1 x15 >= -1 ;
+1 x15 = 1 ;
-1 x25 +1 x7 >= 0 ;
-1 x25 +1 x16 >= 0 ;
+1 x25 -1 x7 -1 x16 >= -1 ;
+1 x16 = 0 ;
-1 x26 +1 x8 >= 0 ;
-1 x26 +1 x17 >= 0 ;
+1 x26 -1 x8 -1 x17 >= -1 ;
+1 x17 = 1 ;
-1 x27 +1 x9 >= 0 ;
-1 x27 +1 x18 >= 0 ;
+1 x27 -1 x9 -1 x18 >= -1 ;
+1 x18 = 0 ;
-1 x37 +1 x10 >= 0 ;
-1 x37 +1 x28 >= 0 ;
+1 x37 -1 x10 -1 x28 >= -1 ;
+1 x37 +2 x46 +4 x55 +8 x64 +16 x73 +32 x82 +64 x91 +128 x100 +256 x109 +2 x38 +4 x47 +8 x56 +16 x65 +32 x74 +64 x83 +128 x92 +256 x101 +512 x110 +4 x39 +8 x48 +16 x57 +32 x66 +64 x75 +128 x84 +256 x93 +512 x102 +1024 x111 +8 x40 +16 x49 +32 x58 +64 x67 +128 x76 +256 x85 +512 x94 +1024 x103 +2048 x112 +16 x41 +32 x50 +64 x59 +128 x68 +256 x77 +512 x86 +1024 x95 +2048 x104 +4096 x113 +32 x42 +64 x51 +128 x60 +256 x69 +512 x78 +1024 x87 +2048 x96 +4096 x105 +8192 x114 +64 x43 +128 x52 +256 x61 +512 x70 +1024 x79 +2048 x88 +4096 x97 +8192 x106 +16384 x115 +128 x44 +256 x53 +512 x62 +1024 x71 +2048 x80 +4096 x89 +8192 x98 +16384 x107 +32768 x116 +256 x45 +512 x54 +1024 x63 +2048 x72 +4096 x81 +8192 x90 +16384 x99 +32768 x108 +65536 x117 -1 x523 -2 x524 -4 x525 -8 x526 -16 x527 -32 x528 -64 x529 -128 x530 -256 x531 -512 x532 -1024 x533 -2048 x534 -4096 x535 -8192 x536 -16384 x537 -32768 x538 -65536 x539 -131072 x540 = 0; 
-1 x280 +1 x19 >= 0 ;
-1 x280 +1 x28 >= 0 ;
+1 x280 -1 x19 -1 x28 >= -1 ;
+1 x280 +2 x289 +4 x298 +8 x307 +16 x316 +32 x325 +64 x334 +128 x343 +256 x352 +2 x281 +4 x290 +8 x299 +16 x308 +32 x317 +64 x326 +128 x335 +256 x344 +512 x353 +4 x282 +8 x291 +16 x300 +32 x309 +64 x318 +128 x327 +256 x336 +512 x345 +1024 x354 +8 x283 +16 x292 +32 x301 +64 x310 +128 x319 +256 x328 +512 x337 +1024 x346 +2048 x355 +16 x284 +32 x293 +64 x302 +128 x311 +256 x320 +512 x329 +1024 x338 +2048 x347 +4096 x356 +32 x285 +64 x294 +128 x303 +256 x312 +512 x321 +1024 x330 +2048 x339 +4096 x348 +8192 x357 +64 x286 +128 x295 +256 x304 +512 x313 +1024 x322 +2048 x331 +4096 x340 +8192 x349 +16384 x358 +128 x287 +256 x296 +512 x305 +1024 x314 +2048 x323 +4096 x332 +8192 x341 +16384 x350 +32768 x359 +256 x288 +512 x297 +1024 x306 +2048 x315 +4096 x324 +8192 x333 +16384 x342 +32768 x351 +65536 x360 -1 x541 -2 x542 -4 x543 -8 x544 -16 x545 -32 x546 -64 x547 -128 x548 -256 x549 -512 x550 -1024 x551 -2048 x552 -4096 x553 -8192 x554 -16384 x555 -32768 x556 -65536 x557 -131072 x558 = 0; 
+1 x541 -1 x523 +2 x542 -2 x524 +4 x543 -4 x525 +8 x544 -8 x526 +16 x545 -16 x527 +32 x546 -32 x528 +64 x547 -64 x529 +128 x548 -128 x530 +256 x549 -256 x531 +512 x550 -512 x532 +1024 x551 -1024 x533 +2048 x552 -2048 x534 +4096 x553 -4096 x535 +8192 x554 -8192 x536 +16384 x555 -16384 x537 +32768 x556 -32768 x538 +65536 x557 -65536 x539 +131072 x558 -131072 x540 >= 1 ;
-1 x46 +1 x11 >= 0 ;
-1 x46 +1 x28 >= 0 ;
+1 x46 -1 x11 -1 x28 >= -1 ;
-1 x38 +1 x10 >= 0 ;
-1 x38 +1 x29 >= 0 ;
+1 x38 -1 x10 -1 x29 >= -1 ;
-1 x289 +1 x20 >= 0 ;
-1 x289 +1 x28 >= 0 ;
+1 x289 -1 x20 -1 x28 >= -1 ;
-1 x281 +1 x19 >= 0 ;
-1 x281 +1 x29 >= 0 ;
+1 x281 -1 x19 -1 x29 >= -1 ;
-1 x55 +1 x12 >= 0 ;
-1 x55 +1 x28 >= 0 ;
+1 x55 -1 x12 -1 x28 >= -1 ;
-1 x47 +1 x11 >= 0 ;
-1 x47 +1 x29 >= 0 ;
+1 x47 -1 x11 -1 x29 >= -1 ;
-1 x39 +1 x10 >= 0 ;
-1 x39 +1 x30 >= 0 ;
+1 x39 -1 x10 -1 x30 >= -1 ;
-1 x298 +1 x21 >= 0 ;
-1 x298 +1 x28 >= 0 ;
+1 x298 -1 x21 -1 x28 >= -1 ;
-1 x290 +1 x20 >= 0 ;
-1 x290 +1 x29 >= 0 ;
+1 x290 -1 x20 -1 x29 >= -1 ;
-1 x282 +1 x19 >= 0 ;
-1 x282 +1 x30 >= 0 ;
+1 x282 -1 x19 -1 x30 >= -1 ;
-1 x64 +1 x13 >= 0 ;
-1 x64 +1 x28 >= 0 ;
+1 x64 -1 x13 -1 x28 >= -1 ;
-1 x56 +1 x12 >= 0 ;
-1 x56 +1 x29 >= 0 ;
+1 x56 -1 x12 -1 x29 >= -1 ;
-1 x48 +1 x11 >= 0 ;
-1 x48 +1 x30 >= 0 ;
+1 x48 -1 x11 -1 x30 >= -1 ;
-1 x40 +1 x10 >= 0 ;
-1 x40 +1 x31 >= 0 ;
+1 x40 -1 x10 -1 x31 >= -1 ;
-1 x307 +1 x22 >= 0 ;
-1 x307 +1 x28 >= 0 ;
+1 x307 -1 x22 -1 x28 >= -1 ;
-1 x299 +1 x21 >= 0 ;
-1 x299 +1 x29 >= 0 ;
+1 x299 -1 x21 -1 x29 >= -1 ;
-1 x291 +1 x20 >= 0 ;
-1 x291 +1 x30 >= 0 ;
+1 x291 -1 x20 -1 x30 >= -1 ;
-1 x283 +1 x19 >= 0 ;
-1 x283 +1 x31 >= 0 ;
+1 x283 -1 x19 -1 x31 >= -1 ;
-1 x73 +1 x14 >= 0 ;
-1 x73 +1 x28 >= 0 ;
+1 x73 -1 x14 -1 x28 >= -1 ;
-1 x65 +1 x13 >= 0 ;
-1 x65 +1 x29 >= 0 ;
+1 x65 -1 x13 -1 x29 >= -1 ;
-1 x57 +1 x12 >= 0 ;
-1 x57 +1 x30 >= 0 ;
+1 x57 -1 x12 -1 x30 >= -1 ;
-1 x49 +1 x11 >= 0 ;
-1 x49 +1 x31 >= 0 ;
+1 x49 -1 x11 -1 x31 >= -1 ;
-1 x41 +1 x10 >= 0 ;
-1 x41 +1 x32 >= 0 ;
+1 x41 -1 x10 -1 x32 >= -1 ;
-1 x316 +1 x23 >= 0 ;
-1 x316 +1 x28 >= 0 ;
+1 x316 -1 x23 -1 x28 >= -1 ;
-1 x308 +1 x22 >= 0 ;
-1 x308 +1 x29 >= 0 ;
+1 x308 -1 x22 -1 x29 >= -1 ;
-1 x300 +1 x21 >= 0 ;
-1 x300 +1 x30 >= 0 ;
+1 x300 -1 x21 -1 x30 >= -1 ;
-1 x292 +1 x20 >= 0 ;
-1 x292 +1 x31 >= 0 ;
+1 x292 -1 x20 -1 x31 >= -1 ;
-1 x284 +1 x19 >= 0 ;
-1 x284 +1 x32 >= 0 ;
+1 x284 -1 x19 -1 x32 >= -1 ;
-1 x82 +1 x15 >= 0 ;
-1 x82 +1 x28 >= 0 ;
+1 x82 -1 x15 -1 x28 >= -1 ;
-1 x74 +1 x14 >= 0 ;
-1 x74 +1 x29 >= 0 ;
+1 x74 -1 x14 -1 x29 >= -1 ;
-1 x66 +1 x13 >= 0 ;
-1 x66 +1 x30 >= 0 ;
+1 x66 -1 x13 -1 x30 >= -1 ;
-1 x58 +1 x12 >= 0 ;
-1 x58 +1 x31 >= 0 ;
+1 x58 -1 x12 -1 x31 >= -1 ;
-1 x50 +1 x11 >= 0 ;
-1 x50 +1 x32 >= 0 ;
+1 x50 -1 x11 -1 x32 >= -1 ;
-1 x42 +1 x10 >= 0 ;
-1 x42 +1 x33 >= 0 ;
+1 x42 -1 x10 -1 x33 >= -1 ;
-1 x325 +1 x24 >= 0 ;
-1 x325 +1 x28 >= 0 ;
+1 x325 -1 x24 -1 x28 >= -1 ;
-1 x317 +1 x23 >= 0 ;
-1 x317 +1 x29 >= 0 ;
+1 x317 -1 x23 -1 x29 >= -1 ;
-1 x309 +1 x22 >= 0 ;
-1 x309 +1 x30 >= 0 ;
+1 x309 -1 x22 -1 x30 >= -1 ;
-1 x301 +1 x21 >= 0 ;
-1 x301 +1 x31 >= 0 ;
+1 x301 -1 x21 -1 x31 >= -1 ;
-1 x293 +1 x20 >= 0 ;
-1 x293 +1 x32 >= 0 ;
+1 x293 -1 x20 -1 x32 >= -1 ;
-1 x285 +1 x19 >= 0 ;
-1 x285 +1 x33 >= 0 ;
+1 x285 -1 x19 -1 x33 >= -1 ;
-1 x91 +1 x16 >= 0 ;
-1 x91 +1 x28 >= 0 ;
+1 x91 -1 x16 -1 x28 >= -1 ;
-1 x83 +1 x15 >= 0 ;
-1 x83 +1 x29 >= 0 ;
+1 x83 -1 x15 -1 x29 >= -1 ;
-1 x75 +1 x14 >= 0 ;
-1 x75 +1 x30 >= 0 ;
+1 x75 -1 x14 -1 x30 >= -1 ;
-1 x67 +1 x13 >= 0 ;
-1 x67 +1 x31 >= 0 ;
+1 x67 -1 x13 -1 x31 >= -1 ;
-1 x59 +1 x12 >= 0 ;
-1 x59 +1 x32 >= 0 ;
+1 x59 -1 x12 -1 x32 >= -1 ;
-1 x51 +1 x11 >= 0 ;
-1 x51 +1 x33 >= 0 ;
+1 x51 -1 x11 -1 x33 >= -1 ;
-1 x43 +1 x10 >= 0 ;
-1 x43 +1 x34 >= 0 ;
+1 x43 -1 x10 -1 x34 >= -1 ;
-1 x334 +1 x25 >= 0 ;
-1 x334 +1 x28 >= 0 ;
+1 x334 -1 x25 -1 x28 >= -1 ;
-1 x326 +1 x24 >= 0 ;
-1 x326 +1 x29 >= 0 ;
+1 x326 -1 x24 -1 x29 >= -1 ;
-1 x318 +1 x23 >= 0 ;
-1 x318 +1 x30 >= 0 ;
+1 x318 -1 x23 -1 x30 >= -1 ;
-1 x310 +1 x22 >= 0 ;
-1 x310 +1 x31 >= 0 ;
+1 x310 -1 x22 -1 x31 >= -1 ;
-1 x302 +1 x21 >= 0 ;
-1 x302 +1 x32 >= 0 ;
+1 x302 -1 x21 -1 x32 >= -1 ;
-1 x294 +1 x20 >= 0 ;
-1 x294 +1 x33 >= 0 ;
+1 x294 -1 x20 -1 x33 >= -1 ;
-1 x286 +1 x19 >= 0 ;
-1 x286 +1 x34 >= 0 ;
+1 x286 -1 x19 -1 x34 >= -1 ;
-1 x100 +1 x17 >= 0 ;
-1 x100 +1 x28 >= 0 ;
+1 x100 -1 x17 -1 x28 >= -1 ;
-1 x92 +1 x16 >= 0 ;
-1 x92 +1 x29 >= 0 ;
+1 x92 -1 x16 -1 x29 >= -1 ;
-1 x84 +1 x15 >= 0 ;
-1 x84 +1 x30 >= 0 ;
+1 x84 -1 x15 -1 x30 >= -1 ;
-1 x76 +1 x14 >= 0 ;
-1 x76 +1 x31 >= 0 ;
+1 x76 -1 x14 -1 x31 >= -1 ;
-1 x68 +1 x13 >= 0 ;
-1 x68 +1 x32 >= 0 ;
+1 x68 -1 x13 -1 x32 >= -1 ;
-1 x60 +1 x12 >= 0 ;
-1 x60 +1 x33 >= 0 ;
+1 x60 -1 x12 -1 x33 >= -1 ;
-1 x52 +1 x11 >= 0 ;
-1 x52 +1 x34 >= 0 ;
+1 x52 -1 x11 -1 x34 >= -1 ;
-1 x44 +1 x10 >= 0 ;
-1 x44 +1 x35 >= 0 ;
+1 x44 -1 x10 -1 x35 >= -1 ;
-1 x343 +1 x26 >= 0 ;
-1 x343 +1 x28 >= 0 ;
+1 x343 -1 x26 -1 x28 >= -1 ;
-1 x335 +1 x25 >= 0 ;
-1 x335 +1 x29 >= 0 ;
+1 x335 -1 x25 -1 x29 >= -1 ;
-1 x327 +1 x24 >= 0 ;
-1 x327 +1 x30 >= 0 ;
+1 x327 -1 x24 -1 x30 >= -1 ;
-1 x319 +1 x23 >= 0 ;
-1 x319 +1 x31 >= 0 ;
+1 x319 -1 x23 -1 x31 >= -1 ;
-1 x311 +1 x22 >= 0 ;
-1 x311 +1 x32 >= 0 ;
+1 x311 -1 x22 -1 x32 >= -1 ;
-1 x303 +1 x21 >= 0 ;
-1 x303 +1 x33 >= 0 ;
+1 x303 -1 x21 -1 x33 >= -1 ;
-1 x295 +1 x20 >= 0 ;
-1 x295 +1 x34 >= 0 ;
+1 x295 -1 x20 -1 x34 >= -1 ;
-1 x287 +1 x19 >= 0 ;
-1 x287 +1 x35 >= 0 ;
+1 x287 -1 x19 -1 x35 >= -1 ;
-1 x109 +1 x18 >= 0 ;
-1 x109 +1 x28 >= 0 ;
+1 x109 -1 x18 -1 x28 >= -1 ;
-1 x101 +1 x17 >= 0 ;
-1 x101 +1 x29 >= 0 ;
+1 x101 -1 x17 -1 x29 >= -1 ;
-1 x93 +1 x16 >= 0 ;
-1 x93 +1 x30 >= 0 ;
+1 x93 -1 x16 -1 x30 >= -1 ;
-1 x85 +1 x15 >= 0 ;
-1 x85 +1 x31 >= 0 ;
+1 x85 -1 x15 -1 x31 >= -1 ;
-1 x77 +1 x14 >= 0 ;
-1 x77 +1 x32 >= 0 ;
+1 x77 -1 x14 -1 x32 >= -1 ;
-1 x69 +1 x13 >= 0 ;
-1 x69 +1 x33 >= 0 ;
+1 x69 -1 x13 -1 x33 >= -1 ;
-1 x61 +1 x12 >= 0 ;
-1 x61 +1 x34 >= 0 ;
+1 x61 -1 x12 -1 x34 >= -1 ;
-1 x53 +1 x11 >= 0 ;
-1 x53 +1 x35 >= 0 ;
+1 x53 -1 x11 -1 x35 >= -1 ;
-1 x45 +1 x10 >= 0 ;
-1 x45 +1 x36 >= 0 ;
+1 x45 -1 x10 -1 x36 >= -1 ;
-1 x352 +1 x27 >= 0 ;
-1 x352 +1 x28 >= 0 ;
+1 x352 -1 x27 -1 x28 >= -1 ;
-1 x344 +1 x26 >= 0 ;
-1 x344 +1 x29 >= 0 ;
+1 x344 -1 x26 -1 x29 >= -1 ;
-1 x336 +1 x25 >= 0 ;
-1 x336 +1 x30 >= 0 ;
+1 x336 -1 x25 -1 x30 >= -1 ;
-1 x328 +1 x24 >= 0 ;
-1 x328 +1 x31 >= 0 ;
+1 x328 -1 x24 -1 x31 >= -1 ;
-1 x320 +1 x23 >= 0 ;
-1 x320 +1 x32 >= 0 ;
+1 x320 -1 x23 -1 x32 >= -1 ;
-1 x312 +1 x22 >= 0 ;
-1 x312 +1 x33 >= 0 ;
+1 x312 -1 x22 -1 x33 >= -1 ;
-1 x304 +1 x21 >= 0 ;
-1 x304 +1 x34 >= 0 ;
+1 x304 -1 x21 -1 x34 >= -1 ;
-1 x296 +1 x20 >= 0 ;
-1 x296 +1 x35 >= 0 ;
+1 x296 -1 x20 -1 x35 >= -1 ;
-1 x288 +1 x19 >= 0 ;
-1 x288 +1 x36 >= 0 ;
+1 x288 -1 x19 -1 x36 >= -1 ;
-1 x110 +1 x18 >= 0 ;
-1 x110 +1 x29 >= 0 ;
+1 x110 -1 x18 -1 x29 >= -1 ;
-1 x102 +1 x17 >= 0 ;
-1 x102 +1 x30 >= 0 ;
+1 x102 -1 x17 -1 x30 >= -1 ;
-1 x94 +1 x16 >= 0 ;
-1 x94 +1 x31 >= 0 ;
+1 x94 -1 x16 -1 x31 >= -1 ;
-1 x86 +1 x15 >= 0 ;
-1 x86 +1 x32 >= 0 ;
+1 x86 -1 x15 -1 x32 >= -1 ;
-1 x78 +1 x14 >= 0 ;
-1 x78 +1 x33 >= 0 ;
+1 x78 -1 x14 -1 x33 >= -1 ;
-1 x70 +1 x13 >= 0 ;
-1 x70 +1 x34 >= 0 ;
+1 x70 -1 x13 -1 x34 >= -1 ;
-1 x62 +1 x12 >= 0 ;
-1 x62 +1 x35 >= 0 ;
+1 x62 -1 x12 -1 x35 >= -1 ;
-1 x54 +1 x11 >= 0 ;
-1 x54 +1 x36 >= 0 ;
+1 x54 -1 x11 -1 x36 >= -1 ;
-1 x353 +1 x27 >= 0 ;
-1 x353 +1 x29 >= 0 ;
+1 x353 -1 x27 -1 x29 >= -1 ;
-1 x345 +1 x26 >= 0 ;
-1 x345 +1 x30 >= 0 ;
+1 x345 -1 x26 -1 x30 >= -1 ;
-1 x337 +1 x25 >= 0 ;
-1 x337 +1 x31 >= 0 ;
+1 x337 -1 x25 -1 x31 >= -1 ;
-1 x329 +1 x24 >= 0 ;
-1 x329 +1 x32 >= 0 ;
+1 x329 -1 x24 -1 x32 >= -1 ;
-1 x321 +1 x23 >= 0 ;
-1 x321 +1 x33 >= 0 ;
+1 x321 -1 x23 -1 x33 >= -1 ;
-1 x313 +1 x22 >= 0 ;
-1 x313 +1 x34 >= 0 ;
+1 x313 -1 x22 -1 x34 >= -1 ;
-1 x305 +1 x21 >= 0 ;
-1 x305 +1 x35 >= 0 ;
+1 x305 -1 x21 -1 x35 >= -1 ;
-1 x297 +1 x20 >= 0 ;
-1 x297 +1 x36 >= 0 ;
+1 x297 -1 x20 -1 x36 >= -1 ;
-1 x111 +1 x18 >= 0 ;
-1 x111 +1 x30 >= 0 ;
+1 x111 -1 x18 -1 x30 >= -1 ;
-1 x103 +1 x17 >= 0 ;
-1 x103 +1 x31 >= 0 ;
+1 x103 -1 x17 -1 x31 >= -1 ;
-1 x95 +1 x16 >= 0 ;
-1 x95 +1 x32 >= 0 ;
+1 x95 -1 x16 -1 x32 >= -1 ;
-1 x87 +1 x15 >= 0 ;
-1 x87 +1 x33 >= 0 ;
+1 x87 -1 x15 -1 x33 >= -1 ;
-1 x79 +1 x14 >= 0 ;
-1 x79 +1 x34 >= 0 ;
+1 x79 -1 x14 -1 x34 >= -1 ;
-1 x71 +1 x13 >= 0 ;
-1 x71 +1 x35 >= 0 ;
+1 x71 -1 x13 -1 x35 >= -1 ;
-1 x63 +1 x12 >= 0 ;
-1 x63 +1 x36 >= 0 ;
+1 x63 -1 x12 -1 x36 >= -1 ;
-1 x354 +1 x27 >= 0 ;
-1 x354 +1 x30 >= 0 ;
+1 x354 -1 x27 -1 x30 >= -1 ;
-1 x346 +1 x26 >= 0 ;
-1 x346 +1 x31 >= 0 ;
+1 x346 -1 x26 -1 x31 >= -1 ;
-1 x338 +1 x25 >= 0 ;
-1 x338 +1 x32 >= 0 ;
+1 x338 -1 x25 -1 x32 >= -1 ;
-1 x330 +1 x24 >= 0 ;
-1 x330 +1 x33 >= 0 ;
+1 x330 -1 x24 -1 x33 >= -1 ;
-1 x322 +1 x23 >= 0 ;
-1 x322 +1 x34 >= 0 ;
+1 x322 -1 x23 -1 x34 >= -1 ;
-1 x314 +1 x22 >= 0 ;
-1 x314 +1 x35 >= 0 ;
+1 x314 -1 x22 -1 x35 >= -1 ;
-1 x306 +1 x21 >= 0 ;
-1 x306 +1 x36 >= 0 ;
+1 x306 -1 x21 -1 x36 >= -1 ;
-1 x112 +1 x18 >= 0 ;
-1 x112 +1 x31 >= 0 ;
+1 x112 -1 x18 -1 x31 >= -1 ;
-1 x104 +1 x17 >= 0 ;
-1 x104 +1 x32 >= 0 ;
+1 x104 -1 x17 -1 x32 >= -1 ;
-1 x96 +1 x16 >= 0 ;
-1 x96 +1 x33 >= 0 ;
+1 x96 -1 x16 -1 x33 >= -1 ;
-1 x88 +1 x15 >= 0 ;
-1 x88 +1 x34 >= 0 ;
+1 x88 -1 x15 -1 x34 >= -1 ;
-1 x80 +1 x14 >= 0 ;
-1 x80 +1 x35 >= 0 ;
+1 x80 -1 x14 -1 x35 >= -1 ;
-1 x72 +1 x13 >= 0 ;
-1 x72 +1 x36 >= 0 ;
+1 x72 -1 x13 -1 x36 >= -1 ;
-1 x355 +1 x27 >= 0 ;
-1 x355 +1 x31 >= 0 ;
+1 x355 -1 x27 -1 x31 >= -1 ;
-1 x347 +1 x26 >= 0 ;
-1 x347 +1 x32 >= 0 ;
+1 x347 -1 x26 -1 x32 >= -1 ;
-1 x339 +1 x25 >= 0 ;
-1 x339 +1 x33 >= 0 ;
+1 x339 -1 x25 -1 x33 >= -1 ;
-1 x331 +1 x24 >= 0 ;
-1 x331 +1 x34 >= 0 ;
+1 x331 -1 x24 -1 x34 >= -1 ;
-1 x323 +1 x23 >= 0 ;
-1 x323 +1 x35 >= 0 ;
+1 x323 -1 x23 -1 x35 >= -1 ;
-1 x315 +1 x22 >= 0 ;
-1 x315 +1 x36 >= 0 ;
+1 x315 -1 x22 -1 x36 >= -1 ;
-1 x113 +1 x18 >= 0 ;
-1 x113 +1 x32 >= 0 ;
+1 x113 -1 x18 -1 x32 >= -1 ;
-1 x105 +1 x17 >= 0 ;
-1 x105 +1 x33 >= 0 ;
+1 x105 -1 x17 -1 x33 >= -1 ;
-1 x97 +1 x16 >= 0 ;
-1 x97 +1 x34 >= 0 ;
+1 x97 -1 x16 -1 x34 >= -1 ;
-1 x89 +1 x15 >= 0 ;
-1 x89 +1 x35 >= 0 ;
+1 x89 -1 x15 -1 x35 >= -1 ;
-1 x81 +1 x14 >= 0 ;
-1 x81 +1 x36 >= 0 ;
+1 x81 -1 x14 -1 x36 >= -1 ;
-1 x356 +1 x27 >= 0 ;
-1 x356 +1 x32 >= 0 ;
+1 x356 -1 x27 -1 x32 >= -1 ;
-1 x348 +1 x26 >= 0 ;
-1 x348 +1 x33 >= 0 ;
+1 x348 -1 x26 -1 x33 >= -1 ;
-1 x340 +1 x25 >= 0 ;
-1 x340 +1 x34 >= 0 ;
+1 x340 -1 x25 -1 x34 >= -1 ;
-1 x332 +1 x24 >= 0 ;
-1 x332 +1 x35 >= 0 ;
+1 x332 -1 x24 -1 x35 >= -1 ;
-1 x324 +1 x23 >= 0 ;
-1 x324 +1 x36 >= 0 ;
+1 x324 -1 x23 -1 x36 >= -1 ;
-1 x114 +1 x18 >= 0 ;
-1 x114 +1 x33 >= 0 ;
+1 x114 -1 x18 -1 x33 >= -1 ;
-1 x106 +1 x17 >= 0 ;
-1 x106 +1 x34 >= 0 ;
+1 x106 -1 x17 -1 x34 >= -1 ;
-1 x98 +1 x16 >= 0 ;
-1 x98 +1 x35 >= 0 ;
+1 x98 -1 x16 -1 x35 >= -1 ;
-1 x90 +1 x15 >= 0 ;
-1 x90 +1 x36 >= 0 ;
+1 x90 -1 x15 -1 x36 >= -1 ;
-1 x357 +1 x27 >= 0 ;
-1 x357 +1 x33 >= 0 ;
+1 x357 -1 x27 -1 x33 >= -1 ;
-1 x349 +1 x26 >= 0 ;
-1 x349 +1 x34 >= 0 ;
+1 x349 -1 x26 -1 x34 >= -1 ;
-1 x341 +1 x25 >= 0 ;
-1 x341 +1 x35 >= 0 ;
+1 x341 -1 x25 -1 x35 >= -1 ;
-1 x333 +1 x24 >= 0 ;
-1 x333 +1 x36 >= 0 ;
+1 x333 -1 x24 -1 x36 >= -1 ;
-1 x115 +1 x18 >= 0 ;
-1 x115 +1 x34 >= 0 ;
+1 x115 -1 x18 -1 x34 >= -1 ;
-1 x107 +1 x17 >= 0 ;
-1 x107 +1 x35 >= 0 ;
+1 x107 -1 x17 -1 x35 >= -1 ;
-1 x99 +1 x16 >= 0 ;
-1 x99 +1 x36 >= 0 ;
+1 x99 -1 x16 -1 x36 >= -1 ;
-1 x358 +1 x27 >= 0 ;
-1 x358 +1 x34 >= 0 ;
+1 x358 -1 x27 -1 x34 >= -1 ;
-1 x350 +1 x26 >= 0 ;
-1 x350 +1 x35 >= 0 ;
+1 x350 -1 x26 -1 x35 >= -1 ;
-1 x342 +1 x25 >= 0 ;
-1 x342 +1 x36 >= 0 ;
+1 x342 -1 x25 -1 x36 >= -1 ;
-1 x116 +1 x18 >= 0 ;
-1 x116 +1 x35 >= 0 ;
+1 x116 -1 x18 -1 x35 >= -1 ;
-1 x108 +1 x17 >= 0 ;
-1 x108 +1 x36 >= 0 ;
+1 x108 -1 x17 -1 x36 >= -1 ;
-1 x359 +1 x27 >= 0 ;
-1 x359 +1 x35 >= 0 ;
+1 x359 -1 x27 -1 x35 >= -1 ;
-1 x351 +1 x26 >= 0 ;
-1 x351 +1 x36 >= 0 ;
+1 x351 -1 x26 -1 x36 >= -1 ;
-1 x117 +1 x18 >= 0 ;
-1 x117 +1 x36 >= 0 ;
+1 x117 -1 x18 -1 x36 >= -1 ;
-1 x360 +1 x27 >= 0 ;
-1 x360 +1 x36 >= 0 ;
+1 x360 -1 x27 -1 x36 >= -1 ;
